
Gurobi 9.1.2 (linux64) logging started Thu Jun 16 06:47:41 2022

Changed value of parameter LogFile to ls2_sym_v-(0, 7).log
   Prev:   Default: 
Changed value of parameter MIPFocus to 1
   Prev: 0  Min: 0  Max: 3  Default: 0
Changed value of parameter TimeLimit to 10800.0
   Prev: inf  Min: 0.0  Max: inf  Default: inf
Warning: variable name "X[(4, 3),(2, 3)]" has a space
Warning: constraint name "flow-constr-t0-v(4, 0)" has a space
Warning: to let Gurobi read it back, use rlp format
Gurobi Optimizer version 9.1.2 build v9.1.2rc0 (linux64)
Thread count: 32 physical cores, 64 logical processors, using up to 32 threads
Optimize a model with 4583 rows, 4096 columns and 15552 nonzeros
Model fingerprint: 0x34c192d5
Variable types: 512 continuous, 3584 integer (3584 binary)
Coefficient statistics:
  Matrix range     [1e+00, 7e+04]
  Objective range  [1e-01, 1e-01]
  Bounds range     [1e+00, 3e+04]
  RHS range        [1e+00, 7e+04]
Presolve removed 307 rows and 320 columns
Presolve time: 0.18s
Presolved: 4276 rows, 3776 columns, 20024 nonzeros
Variable types: 512 continuous, 3264 integer (3264 binary)

Root relaxation: objective 6.400000e+01, 148 iterations, 0.01 seconds

    Nodes    |    Current Node    |     Objective Bounds      |     Work
 Expl Unexpl |  Obj  Depth IntInf | Incumbent    BestBd   Gap | It/Node Time

     0     0   64.00000    0   44          -   64.00000      -     -    0s
     0     0   64.00000    0   67          -   64.00000      -     -    0s
     0     0   64.00000    0   67          -   64.00000      -     -    0s
     0     0   64.00000    0   38          -   64.00000      -     -    0s
H    0     0                     780.3750000   64.00000  91.8%     -    0s
H    0     0                     772.7500000   64.00000  91.7%     -    0s
H    0     0                     590.0000000   64.00000  89.2%     -    0s
H    0     0                     589.8750000   64.00000  89.2%     -    0s
     0     0   64.00000    0   26  589.87500   64.00000  89.2%     -    0s
H    0     0                     198.0937500   64.00000  67.7%     -    1s
H    0     0                     110.6250000   64.00000  42.1%     -    1s
     0     0   64.00000    0   44  110.62500   64.00000  42.1%     -    1s
H    0     0                      90.8750000   64.00000  29.6%     -    1s
     0     0   64.00000    0   28   90.87500   64.00000  29.6%     -    1s
     0     0   64.00000    0   40   90.87500   64.00000  29.6%     -    1s
     0     0   64.00000    0   34   90.87500   64.00000  29.6%     -    1s
H    0     0                      90.7500000   64.00000  29.5%     -    1s
H    0     0                      88.1666667   64.00000  27.4%     -    2s
H    0     0                      84.4687500   64.00000  24.2%     -    2s
     0     2   64.00000    0   30   84.46875   64.00000  24.2%     -    2s
H    1     4                      80.4902344   64.00000  20.5%   541    2s
H   31    64                      77.7500000   64.00000  17.7%  41.3    4s
H   33    64                      77.4166667   64.00000  17.3%  39.4    4s
H   35    64                      77.2500000   64.00000  17.2%  37.7    4s
H   36    64                      76.3229167   64.00000  16.1%  37.2    4s
H   37    64                      75.3125000   64.00000  15.0%  36.2    4s
H   44    64                      74.3468750   64.00000  13.9%  31.1    4s
H   58    64                      74.1250000   64.00000  13.7%  26.0    4s
H  159   184                      73.8750000   64.00000  13.4%  11.4    5s
H  161   184                      72.2840909   64.00000  11.5%  11.3    5s
H  162   184                      71.8333333   64.00000  10.9%  11.3    5s
H  171   184                      70.8125000   64.00000  9.62%  10.9    5s
H  192   216                      70.3125000   64.00000  8.98%   9.9    6s
H  200   216                      70.0625000   64.00000  8.65%  37.4    6s
H  210   216                      69.7500000   64.00000  8.24%  50.7    6s
H  223   248                      69.5000000   64.00000  7.91%  81.2    7s
H  224   248                      68.9375000   64.00000  7.16%  80.9    7s
H  235   248                      68.8000000   64.00000  6.98%  77.7    7s
H  237   248                      68.7500000   64.00000  6.91%  77.1    7s
H  255   280                      67.7500000   64.00000  5.54%  71.9   11s
H  263   280                      67.6875000   64.00000  5.45%  69.8   11s
H  266   280                      67.3750000   64.00000  5.01%  69.2   11s
H  300   708                      67.3000000   64.00000  4.90%  61.9   13s
H  370   708                      67.0000000   64.00000  4.48%  51.1   13s
H  709   708                      66.8500000   64.00000  4.26%  38.3   13s
   741  1990   64.00000   27   68   66.85000   64.00000  4.26%  36.9   16s
H  785  1990                      66.6625000   64.00000  3.99%  36.9   16s
H  970  1990                      66.3750000   64.00000  3.58%  31.9   16s
H 2199  3884                      66.1520270   64.00000  3.25%  27.9   20s
H 2390  3782                      65.5000000   64.00000  2.29%  26.6   20s
H 3220  3782                      65.4903846   64.00000  2.28%  23.9   20s
H 4243 10067                      65.4807692   64.00000  2.26%  21.8   23s
H 4300 10067                      65.4062500   64.00000  2.15%  21.7   23s
H 4454 10066                      65.2656250   64.00000  1.94%  22.1   23s
H 4699 10055                      65.1250000   64.00000  1.73%  21.9   23s
H11125 10038                      65.0000000   64.00000  1.54%  24.5   23s
 11220 12626   64.00000   59   73   65.00000   64.00000  1.54%  24.5   25s
 14166 12728   64.00000   20  132   65.00000   64.00000  1.54%  26.6   37s
H14170 12095                      64.9999999   64.00000  1.54%  26.6   37s
H14177 11491                      64.9107143   64.00000  1.40%  26.6   37s
H14188 10918                      64.9090909   64.00000  1.40%  26.6   37s
H14230 10426                      64.8500000   64.00000  1.31%  26.6   38s
H14231  9910                      64.8000000   64.00000  1.23%  26.6   38s
H14246  9416                      64.7727273   64.00000  1.19%  26.6   38s
H14306  9008                      64.7272727   64.00000  1.12%  29.6   40s
H14330  8558                      64.7000000   64.00000  1.08%  29.6   40s
H14541  8304                      64.5000000   64.00000  0.78%  30.7   43s
H14553  7902                      64.4000000   64.00000  0.62%  30.7   43s
 16100  9173   64.00000   49  100   64.40000   64.00000  0.62%  33.8   49s
H16119  8765                      64.2000000   64.00000  0.31%  34.1   49s
 16423 13384   64.00000   54  117   64.20000   64.00000  0.31%  34.5   51s
H16449 12566                      64.0000000   64.00000  0.00%  34.4   51s

Cutting planes:
  Learned: 6
  Gomory: 7
  Cover: 77
  Implied bound: 108
  Clique: 47
  MIR: 71
  StrongCG: 1
  Flow cover: 188
  GUB cover: 3
  Mod-K: 1
  RLT: 47
  Relax-and-lift: 166

Explored 21645 nodes (910062 simplex iterations) in 51.34 seconds
Thread count was 32 (of 64 available processors)

Solution count 10: 64 64.2 64.4 ... 64.9091

Optimal solution found (tolerance 1.00e-04)
Best objective 6.400000000000e+01, best bound 6.400000000000e+01, gap 0.0000%
